%Data example reunion

% Example 1
% persons = ["jose", "julian", "diana", "juan", "david", "claudia", "edgar", "mario"];
% next = [|5,8|];
% separate = [|3,7|];
% distance = [|6,5,2|];

% Example 2
% persons = ["jose", "julian", "diana", "juan", "david", "claudia", "edgar", "mario"];
% next = [|5,8|1,5|7,2|];
% separate = [|3,7|8,2|];
% distance = [|6,5,2|];

% Example 3
% persons = ["jose", "julian", "diana", "juan", "david"];
% next = [|3,4|];
% separate = [|3,1|];
% distance = [|5,3,2|];

% Example 4
% persons = ["a", "b", "c", "d", "e", "f", "g", "h", "i"];
% next = [|3,4|1,9|4,9|];
% separate = [|8,1|6,7|];
% distance = [|5,3,2|8,6,4|];

% Example 5
persons = ["a", "b", "c", "d", "e", "f", "g", "h", "i"];
next = [|1,3|1,2|9,4|];
separate = [|8,1|6,7|3,5|];
distance = [|6,8,7|];

% Example 6
% persons = ["a", "b", "c", "d", "e", "f"];
% next = [|1,3|];
% separate = [|5,1|];
% distance = [|2,5,4|];